
;this file is automatically generated: Tue Oct 27 10:35:01 CST 2020

;declarations generated

(declare-fun oclExcludes ( Int Int) Bool)
(declare-fun Cardinality ( Int) Int)
(declare-fun obj_10acd09d_4fbf_4c59_96db_9b272a9223e2 ( Int) Int)
(declare-fun type_1ad96bd2_eb02_4b49_a3c0_dab56afd3c42_Class24 ( Int) Bool)
(declare-fun type_1ad96bd2_eb02_4b49_a3c0_dab56afd3c42_Class28 ( Int) Bool)
(declare-fun oclSelect ( Int Bool) Int)
(declare-fun type_1ad96bd2_eb02_4b49_a3c0_dab56afd3c42_Class8 ( Int) Bool)
(declare-fun Enum0 ( Int) Int)
(declare-fun Enum1 ( Int) Int)
(declare-fun Enum2 ( Int) Int)
(declare-fun container_ ( Int) Int)
(declare-fun oclIncludes ( Int Int) Bool)
(declare-fun ObjAt ( Int Int) Int)

;formula(s) generated
(assert (! (forall ((c_24 Int)) (=> ( type_1ad96bd2_eb02_4b49_a3c0_dab56afd3c42_Class24 c_24 )  (forall ((c_28 Int)) (=> (and (and ( type_1ad96bd2_eb02_4b49_a3c0_dab56afd3c42_Class28 c_28 )  ( type_1ad96bd2_eb02_4b49_a3c0_dab56afd3c42_Class24 c_28 ) ) ( type_1ad96bd2_eb02_4b49_a3c0_dab56afd3c42_Class8 c_28 ) ) (not (= ( obj_10acd09d_4fbf_4c59_96db_9b272a9223e2 c_24 )  ( obj_10acd09d_4fbf_4c59_96db_9b272a9223e2 c_28 ) ) ))))):named l0))
(assert (exists ((o Int)) ( type_1ad96bd2_eb02_4b49_a3c0_dab56afd3c42_Class24 ( obj_10acd09d_4fbf_4c59_96db_9b272a9223e2 o )  ) ))

 ;end of formula 